poscar file by
1.000000
28.400518 0.000000 0.000000
0.000000 28.400518 0.000000
0.000000 0.000000 28.400518
Fe 
925 
Selective dynamics
Cartesian
7.100130 7.100130 4.260077   T T T
9.940182 7.100130 4.260077   T T T
12.780233 7.100130 4.260077   T T T
15.620285 7.100130 4.260077   T T T
18.460339 7.100130 4.260077   T T T
21.300390 7.100130 4.260077   T T T
7.100130 9.940182 4.260077   T T T
8.520156 8.520156 2.840052   T T T
9.940182 9.940182 4.260077   T T T
11.360208 8.520156 2.840052   T T T
12.780233 9.940182 4.260077   T T T
14.200259 8.520156 2.840052   T T T
15.620285 9.940182 4.260077   T T T
17.040312 8.520156 2.840052   T T T
18.460339 9.940182 4.260077   T T T
19.880363 8.520156 2.840052   T T T
21.300390 9.940182 4.260077   T T T
7.100130 12.780233 4.260077   T T T
8.520156 11.360208 2.840052   T T T
9.940182 12.780233 4.260077   T T T
11.360208 11.360208 2.840052   T T T
12.780233 12.780233 4.260077   T T T
14.200259 11.360208 2.840052   T T T
15.620285 12.780233 4.260077   T T T
17.040312 11.360208 2.840052   T T T
18.460339 12.780233 4.260077   T T T
19.880363 11.360208 2.840052   T T T
21.300390 12.780233 4.260077   T T T
7.100130 15.620285 4.260077   T T T
8.520156 14.200259 2.840052   T T T
9.940182 15.620285 4.260077   T T T
11.360208 14.200259 2.840052   T T T
12.780233 15.620285 4.260077   T T T
14.200259 14.200259 2.840052   T T T
15.620285 15.620285 4.260077   T T T
17.040312 14.200259 2.840052   T T T
18.460339 15.620285 4.260077   T T T
19.880363 14.200259 2.840052   T T T
21.300390 15.620285 4.260077   T T T
7.100130 18.460339 4.260077   T T T
8.520156 17.040312 2.840052   T T T
9.940182 18.460339 4.260077   T T T
11.360208 17.040312 2.840052   T T T
12.780233 18.460339 4.260077   T T T
14.200259 17.040312 2.840052   T T T
15.620285 18.460339 4.260077   T T T
17.040312 17.040312 2.840052   T T T
18.460339 18.460339 4.260077   T T T
19.880363 17.040312 2.840052   T T T
21.300390 18.460339 4.260077   T T T
7.100130 21.300390 4.260077   T T T
8.520156 19.880363 2.840052   T T T
9.940182 21.300390 4.260077   T T T
11.360208 19.880363 2.840052   T T T
12.780233 21.300390 4.260077   T T T
14.200259 19.880363 2.840052   T T T
15.620285 21.300390 4.260077   T T T
17.040312 19.880363 2.840052   T T T
18.460339 21.300390 4.260077   T T T
19.880363 19.880363 2.840052   T T T
21.300390 21.300390 4.260077   T T T
7.100130 4.260077 7.100130   T T T
9.940182 4.260077 7.100130   T T T
12.780233 4.260077 7.100130   T T T
15.620285 4.260077 7.100130   T T T
18.460339 4.260077 7.100130   T T T
21.300390 4.260077 7.100130   T T T
4.260077 7.100130 7.100130   T T T
5.680104 5.680104 5.680104   T T T
7.100130 7.100130 7.100130   T T T
8.520156 5.680104 5.680104   T T T
9.940182 7.100130 7.100130   T T T
11.360208 5.680104 5.680104   T T T
12.780233 7.100130 7.100130   T T T
14.200259 5.680104 5.680104   T T T
15.620285 7.100130 7.100130   T T T
17.040312 5.680104 5.680104   T T T
18.460339 7.100130 7.100130   T T T
19.880363 5.680104 5.680104   T T T
21.300390 7.100130 7.100130   T T T
22.720415 5.680104 5.680104   T T T
24.140442 7.100130 7.100130   T T T
4.260077 9.940182 7.100130   T T T
5.680104 8.520156 5.680104   T T T
7.100130 9.940182 7.100130   T T T
8.520156 8.520156 5.680104   T T T
9.940182 9.940182 7.100130   T T T
11.360208 8.520156 5.680104   T T T
12.780233 9.940182 7.100130   T T T
14.200259 8.520156 5.680104   T T T
15.620285 9.940182 7.100130   T T T
17.040312 8.520156 5.680104   T T T
18.460339 9.940182 7.100130   T T T
19.880363 8.520156 5.680104   T T T
21.300390 9.940182 7.100130   T T T
22.720415 8.520156 5.680104   T T T
24.140442 9.940182 7.100130   T T T
4.260077 12.780233 7.100130   T T T
5.680104 11.360208 5.680104   T T T
7.100130 12.780233 7.100130   T T T
8.520156 11.360208 5.680104   T T T
9.940182 12.780233 7.100130   T T T
11.360208 11.360208 5.680104   T T T
12.780233 12.780233 7.100130   T T T
14.200259 11.360208 5.680104   T T T
15.620285 12.780233 7.100130   T T T
17.040312 11.360208 5.680104   T T T
18.460339 12.780233 7.100130   T T T
19.880363 11.360208 5.680104   T T T
21.300390 12.780233 7.100130   T T T
22.720415 11.360208 5.680104   T T T
24.140442 12.780233 7.100130   T T T
4.260077 15.620285 7.100130   T T T
5.680104 14.200259 5.680104   T T T
7.100130 15.620285 7.100130   T T T
8.520156 14.200259 5.680104   T T T
9.940182 15.620285 7.100130   T T T
11.360208 14.200259 5.680104   T T T
12.780233 15.620285 7.100130   T T T
14.200259 14.200259 5.680104   T T T
15.620285 15.620285 7.100130   T T T
17.040312 14.200259 5.680104   T T T
18.460339 15.620285 7.100130   T T T
19.880363 14.200259 5.680104   T T T
21.300390 15.620285 7.100130   T T T
22.720415 14.200259 5.680104   T T T
24.140442 15.620285 7.100130   T T T
4.260077 18.460339 7.100130   T T T
5.680104 17.040312 5.680104   T T T
7.100130 18.460339 7.100130   T T T
8.520156 17.040312 5.680104   T T T
9.940182 18.460339 7.100130   T T T
11.360208 17.040312 5.680104   T T T
12.780233 18.460339 7.100130   T T T
14.200259 17.040312 5.680104   T T T
15.620285 18.460339 7.100130   T T T
17.040312 17.040312 5.680104   T T T
18.460339 18.460339 7.100130   T T T
19.880363 17.040312 5.680104   T T T
21.300390 18.460339 7.100130   T T T
22.720415 17.040312 5.680104   T T T
24.140442 18.460339 7.100130   T T T
4.260077 21.300390 7.100130   T T T
5.680104 19.880363 5.680104   T T T
7.100130 21.300390 7.100130   T T T
8.520156 19.880363 5.680104   T T T
9.940182 21.300390 7.100130   T T T
11.360208 19.880363 5.680104   T T T
12.780233 21.300390 7.100130   T T T
14.200259 19.880363 5.680104   T T T
15.620285 21.300390 7.100130   T T T
17.040312 19.880363 5.680104   T T T
18.460339 21.300390 7.100130   T T T
19.880363 19.880363 5.680104   T T T
21.300390 21.300390 7.100130   T T T
22.720415 19.880363 5.680104   T T T
24.140442 21.300390 7.100130   T T T
5.680104 22.720415 5.680104   T T T
7.100130 24.140442 7.100130   T T T
8.520156 22.720415 5.680104   T T T
9.940182 24.140442 7.100130   T T T
11.360208 22.720415 5.680104   T T T
12.780233 24.140442 7.100130   T T T
14.200259 22.720415 5.680104   T T T
15.620285 24.140442 7.100130   T T T
17.040312 22.720415 5.680104   T T T
18.460339 24.140442 7.100130   T T T
19.880363 22.720415 5.680104   T T T
21.300390 24.140442 7.100130   T T T
22.720415 22.720415 5.680104   T T T
7.100130 4.260077 9.940182   T T T
8.520156 2.840052 8.520156   T T T
9.940182 4.260077 9.940182   T T T
11.360208 2.840052 8.520156   T T T
12.780233 4.260077 9.940182   T T T
14.200259 2.840052 8.520156   T T T
15.620285 4.260077 9.940182   T T T
17.040312 2.840052 8.520156   T T T
18.460339 4.260077 9.940182   T T T
19.880363 2.840052 8.520156   T T T
21.300390 4.260077 9.940182   T T T
4.260077 7.100130 9.940182   T T T
5.680104 5.680104 8.520156   T T T
7.100130 7.100130 9.940182   T T T
8.520156 5.680104 8.520156   T T T
9.940182 7.100130 9.940182   T T T
11.360208 5.680104 8.520156   T T T
12.780233 7.100130 9.940182   T T T
14.200259 5.680104 8.520156   T T T
15.620285 7.100130 9.940182   T T T
17.040312 5.680104 8.520156   T T T
18.460339 7.100130 9.940182   T T T
19.880363 5.680104 8.520156   T T T
21.300390 7.100130 9.940182   T T T
22.720415 5.680104 8.520156   T T T
24.140442 7.100130 9.940182   T T T
2.840052 8.520156 8.520156   T T T
4.260077 9.940182 9.940182   T T T
5.680104 8.520156 8.520156   T T T
7.100130 9.940182 9.940182   T T T
8.520156 8.520156 8.520156   T T T
9.940182 9.940182 9.940182   T T T
11.360208 8.520156 8.520156   T T T
12.780233 9.940182 9.940182   T T T
14.200259 8.520156 8.520156   T T T
15.620285 9.940182 9.940182   T T T
17.040312 8.520156 8.520156   T T T
18.460339 9.940182 9.940182   T T T
19.880363 8.520156 8.520156   T T T
21.300390 9.940182 9.940182   T T T
22.720415 8.520156 8.520156   T T T
24.140442 9.940182 9.940182   T T T
25.560467 8.520156 8.520156   T T T
2.840052 11.360208 8.520156   T T T
4.260077 12.780233 9.940182   T T T
5.680104 11.360208 8.520156   T T T
7.100130 12.780233 9.940182   T T T
8.520156 11.360208 8.520156   T T T
9.940182 12.780233 9.940182   T T T
11.360208 11.360208 8.520156   T T T
12.780233 12.780233 9.940182   T T T
14.200259 11.360208 8.520156   T T T
15.620285 12.780233 9.940182   T T T
17.040312 11.360208 8.520156   T T T
18.460339 12.780233 9.940182   T T T
19.880363 11.360208 8.520156   T T T
21.300390 12.780233 9.940182   T T T
22.720415 11.360208 8.520156   T T T
24.140442 12.780233 9.940182   T T T
25.560467 11.360208 8.520156   T T T
2.840052 14.200259 8.520156   T T T
4.260077 15.620285 9.940182   T T T
5.680104 14.200259 8.520156   T T T
7.100130 15.620285 9.940182   T T T
8.520156 14.200259 8.520156   T T T
9.940182 15.620285 9.940182   T T T
11.360208 14.200259 8.520156   T T T
12.780233 15.620285 9.940182   T T T
14.200259 14.200259 8.520156   T T T
15.620285 15.620285 9.940182   T T T
17.040312 14.200259 8.520156   T T T
18.460339 15.620285 9.940182   T T T
19.880363 14.200259 8.520156   T T T
21.300390 15.620285 9.940182   T T T
22.720415 14.200259 8.520156   T T T
24.140442 15.620285 9.940182   T T T
25.560467 14.200259 8.520156   T T T
2.840052 17.040312 8.520156   T T T
4.260077 18.460339 9.940182   T T T
5.680104 17.040312 8.520156   T T T
7.100130 18.460339 9.940182   T T T
8.520156 17.040312 8.520156   T T T
9.940182 18.460339 9.940182   T T T
11.360208 17.040312 8.520156   T T T
12.780233 18.460339 9.940182   T T T
14.200259 17.040312 8.520156   T T T
15.620285 18.460339 9.940182   T T T
17.040312 17.040312 8.520156   T T T
18.460339 18.460339 9.940182   T T T
19.880363 17.040312 8.520156   T T T
21.300390 18.460339 9.940182   T T T
22.720415 17.040312 8.520156   T T T
24.140442 18.460339 9.940182   T T T
25.560467 17.040312 8.520156   T T T
2.840052 19.880363 8.520156   T T T
4.260077 21.300390 9.940182   T T T
5.680104 19.880363 8.520156   T T T
7.100130 21.300390 9.940182   T T T
8.520156 19.880363 8.520156   T T T
9.940182 21.300390 9.940182   T T T
11.360208 19.880363 8.520156   T T T
12.780233 21.300390 9.940182   T T T
14.200259 19.880363 8.520156   T T T
15.620285 21.300390 9.940182   T T T
17.040312 19.880363 8.520156   T T T
18.460339 21.300390 9.940182   T T T
19.880363 19.880363 8.520156   T T T
21.300390 21.300390 9.940182   T T T
22.720415 19.880363 8.520156   T T T
24.140442 21.300390 9.940182   T T T
25.560467 19.880363 8.520156   T T T
5.680104 22.720415 8.520156   T T T
7.100130 24.140442 9.940182   T T T
8.520156 22.720415 8.520156   T T T
9.940182 24.140442 9.940182   T T T
11.360208 22.720415 8.520156   T T T
12.780233 24.140442 9.940182   T T T
14.200259 22.720415 8.520156   T T T
15.620285 24.140442 9.940182   T T T
17.040312 22.720415 8.520156   T T T
18.460339 24.140442 9.940182   T T T
19.880363 22.720415 8.520156   T T T
21.300390 24.140442 9.940182   T T T
22.720415 22.720415 8.520156   T T T
8.520156 25.560467 8.520156   T T T
11.360208 25.560467 8.520156   T T T
14.200259 25.560467 8.520156   T T T
17.040312 25.560467 8.520156   T T T
19.880363 25.560467 8.520156   T T T
7.100130 4.260077 12.780233   T T T
8.520156 2.840052 11.360208   T T T
9.940182 4.260077 12.780233   T T T
11.360208 2.840052 11.360208   T T T
12.780233 4.260077 12.780233   T T T
14.200259 2.840052 11.360208   T T T
15.620285 4.260077 12.780233   T T T
17.040312 2.840052 11.360208   T T T
18.460339 4.260077 12.780233   T T T
19.880363 2.840052 11.360208   T T T
21.300390 4.260077 12.780233   T T T
4.260077 7.100130 12.780233   T T T
5.680104 5.680104 11.360208   T T T
7.100130 7.100130 12.780233   T T T
8.520156 5.680104 11.360208   T T T
9.940182 7.100130 12.780233   T T T
11.360208 5.680104 11.360208   T T T
12.780233 7.100130 12.780233   T T T
14.200259 5.680104 11.360208   T T T
15.620285 7.100130 12.780233   T T T
17.040312 5.680104 11.360208   T T T
18.460339 7.100130 12.780233   T T T
19.880363 5.680104 11.360208   T T T
21.300390 7.100130 12.780233   T T T
22.720415 5.680104 11.360208   T T T
24.140442 7.100130 12.780233   T T T
2.840052 8.520156 11.360208   T T T
4.260077 9.940182 12.780233   T T T
5.680104 8.520156 11.360208   T T T
7.100130 9.940182 12.780233   T T T
8.520156 8.520156 11.360208   T T T
9.940182 9.940182 12.780233   T T T
11.360208 8.520156 11.360208   T T T
12.780233 9.940182 12.780233   T T T
14.200259 8.520156 11.360208   T T T
15.620285 9.940182 12.780233   T T T
17.040312 8.520156 11.360208   T T T
18.460339 9.940182 12.780233   T T T
19.880363 8.520156 11.360208   T T T
21.300390 9.940182 12.780233   T T T
22.720415 8.520156 11.360208   T T T
24.140442 9.940182 12.780233   T T T
25.560467 8.520156 11.360208   T T T
2.840052 11.360208 11.360208   T T T
4.260077 12.780233 12.780233   T T T
5.680104 11.360208 11.360208   T T T
7.100130 12.780233 12.780233   T T T
8.520156 11.360208 11.360208   T T T
9.940182 12.780233 12.780233   T T T
11.360208 11.360208 11.360208   T T T
12.780233 12.780233 12.780233   T T T
14.200259 11.360208 11.360208   T T T
15.620285 12.780233 12.780233   T T T
17.040312 11.360208 11.360208   T T T
18.460339 12.780233 12.780233   T T T
19.880363 11.360208 11.360208   T T T
21.300390 12.780233 12.780233   T T T
22.720415 11.360208 11.360208   T T T
24.140442 12.780233 12.780233   T T T
25.560467 11.360208 11.360208   T T T
2.840052 14.200259 11.360208   T T T
4.260077 15.620285 12.780233   T T T
5.680104 14.200259 11.360208   T T T
7.100130 15.620285 12.780233   T T T
8.520156 14.200259 11.360208   T T T
9.940182 15.620285 12.780233   T T T
11.360208 14.200259 11.360208   T T T
12.780233 15.620285 12.780233   T T T
14.200259 14.200259 11.360208   T T T
15.620285 15.620285 12.780233   T T T
17.040312 14.200259 11.360208   T T T
18.460339 15.620285 12.780233   T T T
19.880363 14.200259 11.360208   T T T
21.300390 15.620285 12.780233   T T T
22.720415 14.200259 11.360208   T T T
24.140442 15.620285 12.780233   T T T
25.560467 14.200259 11.360208   T T T
2.840052 17.040312 11.360208   T T T
4.260077 18.460339 12.780233   T T T
5.680104 17.040312 11.360208   T T T
7.100130 18.460339 12.780233   T T T
8.520156 17.040312 11.360208   T T T
9.940182 18.460339 12.780233   T T T
11.360208 17.040312 11.360208   T T T
12.780233 18.460339 12.780233   T T T
14.200259 17.040312 11.360208   T T T
15.620285 18.460339 12.780233   T T T
17.040312 17.040312 11.360208   T T T
18.460339 18.460339 12.780233   T T T
19.880363 17.040312 11.360208   T T T
21.300390 18.460339 12.780233   T T T
22.720415 17.040312 11.360208   T T T
24.140442 18.460339 12.780233   T T T
25.560467 17.040312 11.360208   T T T
2.840052 19.880363 11.360208   T T T
4.260077 21.300390 12.780233   T T T
5.680104 19.880363 11.360208   T T T
7.100130 21.300390 12.780233   T T T
8.520156 19.880363 11.360208   T T T
9.940182 21.300390 12.780233   T T T
11.360208 19.880363 11.360208   T T T
12.780233 21.300390 12.780233   T T T
14.200259 19.880363 11.360208   T T T
15.620285 21.300390 12.780233   T T T
17.040312 19.880363 11.360208   T T T
18.460339 21.300390 12.780233   T T T
19.880363 19.880363 11.360208   T T T
21.300390 21.300390 12.780233   T T T
22.720415 19.880363 11.360208   T T T
24.140442 21.300390 12.780233   T T T
25.560467 19.880363 11.360208   T T T
5.680104 22.720415 11.360208   T T T
7.100130 24.140442 12.780233   T T T
8.520156 22.720415 11.360208   T T T
9.940182 24.140442 12.780233   T T T
11.360208 22.720415 11.360208   T T T
12.780233 24.140442 12.780233   T T T
14.200259 22.720415 11.360208   T T T
15.620285 24.140442 12.780233   T T T
17.040312 22.720415 11.360208   T T T
18.460339 24.140442 12.780233   T T T
19.880363 22.720415 11.360208   T T T
21.300390 24.140442 12.780233   T T T
22.720415 22.720415 11.360208   T T T
8.520156 25.560467 11.360208   T T T
11.360208 25.560467 11.360208   T T T
14.200259 25.560467 11.360208   T T T
17.040312 25.560467 11.360208   T T T
19.880363 25.560467 11.360208   T T T
7.100130 4.260077 15.620285   T T T
8.520156 2.840052 14.200259   T T T
9.940182 4.260077 15.620285   T T T
11.360208 2.840052 14.200259   T T T
12.780233 4.260077 15.620285   T T T
14.200259 2.840052 14.200259   T T T
15.620285 4.260077 15.620285   T T T
17.040312 2.840052 14.200259   T T T
18.460339 4.260077 15.620285   T T T
19.880363 2.840052 14.200259   T T T
21.300390 4.260077 15.620285   T T T
4.260077 7.100130 15.620285   T T T
5.680104 5.680104 14.200259   T T T
7.100130 7.100130 15.620285   T T T
8.520156 5.680104 14.200259   T T T
9.940182 7.100130 15.620285   T T T
11.360208 5.680104 14.200259   T T T
12.780233 7.100130 15.620285   T T T
14.200259 5.680104 14.200259   T T T
15.620285 7.100130 15.620285   T T T
17.040312 5.680104 14.200259   T T T
18.460339 7.100130 15.620285   T T T
19.880363 5.680104 14.200259   T T T
21.300390 7.100130 15.620285   T T T
22.720415 5.680104 14.200259   T T T
24.140442 7.100130 15.620285   T T T
2.840052 8.520156 14.200259   T T T
4.260077 9.940182 15.620285   T T T
5.680104 8.520156 14.200259   T T T
7.100130 9.940182 15.620285   T T T
8.520156 8.520156 14.200259   T T T
9.940182 9.940182 15.620285   T T T
11.360208 8.520156 14.200259   T T T
12.780233 9.940182 15.620285   T T T
14.200259 8.520156 14.200259   T T T
15.620285 9.940182 15.620285   T T T
17.040312 8.520156 14.200259   T T T
18.460339 9.940182 15.620285   T T T
19.880363 8.520156 14.200259   T T T
21.300390 9.940182 15.620285   T T T
22.720415 8.520156 14.200259   T T T
24.140442 9.940182 15.620285   T T T
25.560467 8.520156 14.200259   T T T
2.840052 11.360208 14.200259   T T T
4.260077 12.780233 15.620285   T T T
5.680104 11.360208 14.200259   T T T
7.100130 12.780233 15.620285   T T T
8.520156 11.360208 14.200259   T T T
9.940182 12.780233 15.620285   T T T
11.360208 11.360208 14.200259   T T T
12.780233 12.780233 15.620285   T T T
14.200259 11.360208 14.200259   T T T
15.620285 12.780233 15.620285   T T T
17.040312 11.360208 14.200259   T T T
18.460339 12.780233 15.620285   T T T
19.880363 11.360208 14.200259   T T T
21.300390 12.780233 15.620285   T T T
22.720415 11.360208 14.200259   T T T
24.140442 12.780233 15.620285   T T T
25.560467 11.360208 14.200259   T T T
2.840052 14.200259 14.200259   T T T
4.260077 15.620285 15.620285   T T T
5.680104 14.200259 14.200259   T T T
7.100130 15.620285 15.620285   T T T
8.520156 14.200259 14.200259   T T T
9.940182 15.620285 15.620285   T T T
11.360208 14.200259 14.200259   T T T
12.780233 15.620285 15.620285   T T T
14.200259 14.200259 14.200259   T T T
15.620285 15.620285 15.620285   T T T
17.040312 14.200259 14.200259   T T T
18.460339 15.620285 15.620285   T T T
19.880363 14.200259 14.200259   T T T
21.300390 15.620285 15.620285   T T T
22.720415 14.200259 14.200259   T T T
24.140442 15.620285 15.620285   T T T
25.560467 14.200259 14.200259   T T T
2.840052 17.040312 14.200259   T T T
4.260077 18.460339 15.620285   T T T
5.680104 17.040312 14.200259   T T T
7.100130 18.460339 15.620285   T T T
8.520156 17.040312 14.200259   T T T
9.940182 18.460339 15.620285   T T T
11.360208 17.040312 14.200259   T T T
12.780233 18.460339 15.620285   T T T
14.200259 17.040312 14.200259   T T T
15.620285 18.460339 15.620285   T T T
17.040312 17.040312 14.200259   T T T
18.460339 18.460339 15.620285   T T T
19.880363 17.040312 14.200259   T T T
21.300390 18.460339 15.620285   T T T
22.720415 17.040312 14.200259   T T T
24.140442 18.460339 15.620285   T T T
25.560467 17.040312 14.200259   T T T
2.840052 19.880363 14.200259   T T T
4.260077 21.300390 15.620285   T T T
5.680104 19.880363 14.200259   T T T
7.100130 21.300390 15.620285   T T T
8.520156 19.880363 14.200259   T T T
9.940182 21.300390 15.620285   T T T
11.360208 19.880363 14.200259   T T T
12.780233 21.300390 15.620285   T T T
14.200259 19.880363 14.200259   T T T
15.620285 21.300390 15.620285   T T T
17.040312 19.880363 14.200259   T T T
18.460339 21.300390 15.620285   T T T
19.880363 19.880363 14.200259   T T T
21.300390 21.300390 15.620285   T T T
22.720415 19.880363 14.200259   T T T
24.140442 21.300390 15.620285   T T T
25.560467 19.880363 14.200259   T T T
5.680104 22.720415 14.200259   T T T
7.100130 24.140442 15.620285   T T T
8.520156 22.720415 14.200259   T T T
9.940182 24.140442 15.620285   T T T
11.360208 22.720415 14.200259   T T T
12.780233 24.140442 15.620285   T T T
14.200259 22.720415 14.200259   T T T
15.620285 24.140442 15.620285   T T T
17.040312 22.720415 14.200259   T T T
18.460339 24.140442 15.620285   T T T
19.880363 22.720415 14.200259   T T T
21.300390 24.140442 15.620285   T T T
22.720415 22.720415 14.200259   T T T
8.520156 25.560467 14.200259   T T T
11.360208 25.560467 14.200259   T T T
14.200259 25.560467 14.200259   T T T
17.040312 25.560467 14.200259   T T T
19.880363 25.560467 14.200259   T T T
7.100130 4.260077 18.460339   T T T
8.520156 2.840052 17.040312   T T T
9.940182 4.260077 18.460339   T T T
11.360208 2.840052 17.040312   T T T
12.780233 4.260077 18.460339   T T T
14.200259 2.840052 17.040312   T T T
15.620285 4.260077 18.460339   T T T
17.040312 2.840052 17.040312   T T T
18.460339 4.260077 18.460339   T T T
19.880363 2.840052 17.040312   T T T
21.300390 4.260077 18.460339   T T T
4.260077 7.100130 18.460339   T T T
5.680104 5.680104 17.040312   T T T
7.100130 7.100130 18.460339   T T T
8.520156 5.680104 17.040312   T T T
9.940182 7.100130 18.460339   T T T
11.360208 5.680104 17.040312   T T T
12.780233 7.100130 18.460339   T T T
14.200259 5.680104 17.040312   T T T
15.620285 7.100130 18.460339   T T T
17.040312 5.680104 17.040312   T T T
18.460339 7.100130 18.460339   T T T
19.880363 5.680104 17.040312   T T T
21.300390 7.100130 18.460339   T T T
22.720415 5.680104 17.040312   T T T
24.140442 7.100130 18.460339   T T T
2.840052 8.520156 17.040312   T T T
4.260077 9.940182 18.460339   T T T
5.680104 8.520156 17.040312   T T T
7.100130 9.940182 18.460339   T T T
8.520156 8.520156 17.040312   T T T
9.940182 9.940182 18.460339   T T T
11.360208 8.520156 17.040312   T T T
12.780233 9.940182 18.460339   T T T
14.200259 8.520156 17.040312   T T T
15.620285 9.940182 18.460339   T T T
17.040312 8.520156 17.040312   T T T
18.460339 9.940182 18.460339   T T T
19.880363 8.520156 17.040312   T T T
21.300390 9.940182 18.460339   T T T
22.720415 8.520156 17.040312   T T T
24.140442 9.940182 18.460339   T T T
25.560467 8.520156 17.040312   T T T
2.840052 11.360208 17.040312   T T T
4.260077 12.780233 18.460339   T T T
5.680104 11.360208 17.040312   T T T
7.100130 12.780233 18.460339   T T T
8.520156 11.360208 17.040312   T T T
9.940182 12.780233 18.460339   T T T
11.360208 11.360208 17.040312   T T T
12.780233 12.780233 18.460339   T T T
14.200259 11.360208 17.040312   T T T
15.620285 12.780233 18.460339   T T T
17.040312 11.360208 17.040312   T T T
18.460339 12.780233 18.460339   T T T
19.880363 11.360208 17.040312   T T T
21.300390 12.780233 18.460339   T T T
22.720415 11.360208 17.040312   T T T
24.140442 12.780233 18.460339   T T T
25.560467 11.360208 17.040312   T T T
2.840052 14.200259 17.040312   T T T
4.260077 15.620285 18.460339   T T T
5.680104 14.200259 17.040312   T T T
7.100130 15.620285 18.460339   T T T
8.520156 14.200259 17.040312   T T T
9.940182 15.620285 18.460339   T T T
11.360208 14.200259 17.040312   T T T
12.780233 15.620285 18.460339   T T T
14.200259 14.200259 17.040312   T T T
15.620285 15.620285 18.460339   T T T
17.040312 14.200259 17.040312   T T T
18.460339 15.620285 18.460339   T T T
19.880363 14.200259 17.040312   T T T
21.300390 15.620285 18.460339   T T T
22.720415 14.200259 17.040312   T T T
24.140442 15.620285 18.460339   T T T
25.560467 14.200259 17.040312   T T T
2.840052 17.040312 17.040312   T T T
4.260077 18.460339 18.460339   T T T
5.680104 17.040312 17.040312   T T T
7.100130 18.460339 18.460339   T T T
8.520156 17.040312 17.040312   T T T
9.940182 18.460339 18.460339   T T T
11.360208 17.040312 17.040312   T T T
12.780233 18.460339 18.460339   T T T
14.200259 17.040312 17.040312   T T T
15.620285 18.460339 18.460339   T T T
17.040312 17.040312 17.040312   T T T
18.460339 18.460339 18.460339   T T T
19.880363 17.040312 17.040312   T T T
21.300390 18.460339 18.460339   T T T
22.720415 17.040312 17.040312   T T T
24.140442 18.460339 18.460339   T T T
25.560467 17.040312 17.040312   T T T
2.840052 19.880363 17.040312   T T T
4.260077 21.300390 18.460339   T T T
5.680104 19.880363 17.040312   T T T
7.100130 21.300390 18.460339   T T T
8.520156 19.880363 17.040312   T T T
9.940182 21.300390 18.460339   T T T
11.360208 19.880363 17.040312   T T T
12.780233 21.300390 18.460339   T T T
14.200259 19.880363 17.040312   T T T
15.620285 21.300390 18.460339   T T T
17.040312 19.880363 17.040312   T T T
18.460339 21.300390 18.460339   T T T
19.880363 19.880363 17.040312   T T T
21.300390 21.300390 18.460339   T T T
22.720415 19.880363 17.040312   T T T
24.140442 21.300390 18.460339   T T T
25.560467 19.880363 17.040312   T T T
5.680104 22.720415 17.040312   T T T
7.100130 24.140442 18.460339   T T T
8.520156 22.720415 17.040312   T T T
9.940182 24.140442 18.460339   T T T
11.360208 22.720415 17.040312   T T T
12.780233 24.140442 18.460339   T T T
14.200259 22.720415 17.040312   T T T
15.620285 24.140442 18.460339   T T T
17.040312 22.720415 17.040312   T T T
18.460339 24.140442 18.460339   T T T
19.880363 22.720415 17.040312   T T T
21.300390 24.140442 18.460339   T T T
22.720415 22.720415 17.040312   T T T
8.520156 25.560467 17.040312   T T T
11.360208 25.560467 17.040312   T T T
14.200259 25.560467 17.040312   T T T
17.040312 25.560467 17.040312   T T T
19.880363 25.560467 17.040312   T T T
7.100130 4.260077 21.300390   T T T
8.520156 2.840052 19.880363   T T T
9.940182 4.260077 21.300390   T T T
11.360208 2.840052 19.880363   T T T
12.780233 4.260077 21.300390   T T T
14.200259 2.840052 19.880363   T T T
15.620285 4.260077 21.300390   T T T
17.040312 2.840052 19.880363   T T T
18.460339 4.260077 21.300390   T T T
19.880363 2.840052 19.880363   T T T
21.300390 4.260077 21.300390   T T T
4.260077 7.100130 21.300390   T T T
5.680104 5.680104 19.880363   T T T
7.100130 7.100130 21.300390   T T T
8.520156 5.680104 19.880363   T T T
9.940182 7.100130 21.300390   T T T
11.360208 5.680104 19.880363   T T T
12.780233 7.100130 21.300390   T T T
14.200259 5.680104 19.880363   T T T
15.620285 7.100130 21.300390   T T T
17.040312 5.680104 19.880363   T T T
18.460339 7.100130 21.300390   T T T
19.880363 5.680104 19.880363   T T T
21.300390 7.100130 21.300390   T T T
22.720415 5.680104 19.880363   T T T
24.140442 7.100130 21.300390   T T T
2.840052 8.520156 19.880363   T T T
4.260077 9.940182 21.300390   T T T
5.680104 8.520156 19.880363   T T T
7.100130 9.940182 21.300390   T T T
8.520156 8.520156 19.880363   T T T
9.940182 9.940182 21.300390   T T T
11.360208 8.520156 19.880363   T T T
12.780233 9.940182 21.300390   T T T
14.200259 8.520156 19.880363   T T T
15.620285 9.940182 21.300390   T T T
17.040312 8.520156 19.880363   T T T
18.460339 9.940182 21.300390   T T T
19.880363 8.520156 19.880363   T T T
21.300390 9.940182 21.300390   T T T
22.720415 8.520156 19.880363   T T T
24.140442 9.940182 21.300390   T T T
25.560467 8.520156 19.880363   T T T
2.840052 11.360208 19.880363   T T T
4.260077 12.780233 21.300390   T T T
5.680104 11.360208 19.880363   T T T
7.100130 12.780233 21.300390   T T T
8.520156 11.360208 19.880363   T T T
9.940182 12.780233 21.300390   T T T
11.360208 11.360208 19.880363   T T T
12.780233 12.780233 21.300390   T T T
14.200259 11.360208 19.880363   T T T
15.620285 12.780233 21.300390   T T T
17.040312 11.360208 19.880363   T T T
18.460339 12.780233 21.300390   T T T
19.880363 11.360208 19.880363   T T T
21.300390 12.780233 21.300390   T T T
22.720415 11.360208 19.880363   T T T
24.140442 12.780233 21.300390   T T T
25.560467 11.360208 19.880363   T T T
2.840052 14.200259 19.880363   T T T
4.260077 15.620285 21.300390   T T T
5.680104 14.200259 19.880363   T T T
7.100130 15.620285 21.300390   T T T
8.520156 14.200259 19.880363   T T T
9.940182 15.620285 21.300390   T T T
11.360208 14.200259 19.880363   T T T
12.780233 15.620285 21.300390   T T T
14.200259 14.200259 19.880363   T T T
15.620285 15.620285 21.300390   T T T
17.040312 14.200259 19.880363   T T T
18.460339 15.620285 21.300390   T T T
19.880363 14.200259 19.880363   T T T
21.300390 15.620285 21.300390   T T T
22.720415 14.200259 19.880363   T T T
24.140442 15.620285 21.300390   T T T
25.560467 14.200259 19.880363   T T T
2.840052 17.040312 19.880363   T T T
4.260077 18.460339 21.300390   T T T
5.680104 17.040312 19.880363   T T T
7.100130 18.460339 21.300390   T T T
8.520156 17.040312 19.880363   T T T
9.940182 18.460339 21.300390   T T T
11.360208 17.040312 19.880363   T T T
12.780233 18.460339 21.300390   T T T
14.200259 17.040312 19.880363   T T T
15.620285 18.460339 21.300390   T T T
17.040312 17.040312 19.880363   T T T
18.460339 18.460339 21.300390   T T T
19.880363 17.040312 19.880363   T T T
21.300390 18.460339 21.300390   T T T
22.720415 17.040312 19.880363   T T T
24.140442 18.460339 21.300390   T T T
25.560467 17.040312 19.880363   T T T
2.840052 19.880363 19.880363   T T T
4.260077 21.300390 21.300390   T T T
5.680104 19.880363 19.880363   T T T
7.100130 21.300390 21.300390   T T T
8.520156 19.880363 19.880363   T T T
9.940182 21.300390 21.300390   T T T