poscar file by
1.000000
33.400002 0.000000 0.000000
0.000000 36.400002 0.000000
0.000000 0.000000 37.000000
Cu O H Fe 
320 320 80 925 
Selective dynamics
Cartesian
5.094533 4.569606 3.279750   F F F
5.094533 13.669606 3.279750   F F F
5.094533 22.769609 3.279750   F F F
5.094533 31.869608 3.279750   F F F
11.774532 4.569606 3.279750   F F F
11.774532 13.669606 3.279750   F F F
11.774532 22.769609 3.279750   F F F
11.774532 31.869608 3.279750   F F F
18.454535 4.569606 3.279750   F F F
18.454535 13.669606 3.279750   F F F
18.454535 22.769609 3.279750   F F F
18.454535 31.869608 3.279750   F F F
25.134535 4.569606 3.279750   F F F
25.134535 13.669606 3.279750   F F F
25.134535 22.769609 3.279750   F F F
25.134535 31.869608 3.279750   F F F
31.814535 4.569606 3.279750   F F F
31.814535 13.669606 3.279750   F F F
31.814535 22.769609 3.279750   F F F
31.814535 31.869608 3.279750   F F F
1.735223 4.633030 3.328577   F F F
1.735223 13.733030 3.328577   F F F
1.735223 22.833033 3.328577   F F F
1.735223 31.933033 3.328577   F F F
8.415224 4.633030 3.328577   F F F
8.415224 13.733030 3.328577   F F F
8.415224 22.833033 3.328577   F F F
8.415224 31.933033 3.328577   F F F
15.095222 4.633030 3.328577   F F F
15.095222 13.733030 3.328577   F F F
15.095222 22.833033 3.328577   F F F
15.095222 31.933033 3.328577   F F F
21.775225 4.633030 3.328577   F F F
21.775225 13.733030 3.328577   F F F
21.775225 22.833033 3.328577   F F F
21.775225 31.933033 3.328577   F F F
28.455225 4.633030 3.328577   F F F
28.455225 13.733030 3.328577   F F F
28.455225 22.833033 3.328577   F F F
28.455225 31.933033 3.328577   F F F
0.075475 6.849082 3.335285   F F F
0.075475 15.949081 3.335285   F F F
0.075475 25.049084 3.335285   F F F
0.075475 34.149086 3.335285   F F F
6.755476 6.849082 3.335285   F F F
6.755476 15.949081 3.335285   F F F
6.755476 25.049084 3.335285   F F F
6.755476 34.149086 3.335285   F F F
13.435474 6.849082 3.335285   F F F
13.435474 15.949081 3.335285   F F F
13.435474 25.049084 3.335285   F F F
13.435474 34.149086 3.335285   F F F
20.115477 6.849082 3.335285   F F F
20.115477 15.949081 3.335285   F F F
20.115477 25.049084 3.335285   F F F
20.115477 34.149086 3.335285   F F F
26.795477 6.849082 3.335285   F F F
26.795477 15.949081 3.335285   F F F
26.795477 25.049084 3.335285   F F F
26.795477 34.149086 3.335285   F F F
3.394787 6.896894 3.363891   F F F
3.394787 15.996894 3.363891   F F F
3.394787 25.096893 3.363891   F F F
3.394787 34.196899 3.363891   F F F
10.074786 6.896894 3.363891   F F F
10.074786 15.996894 3.363891   F F F
10.074786 25.096893 3.363891   F F F
10.074786 34.196899 3.363891   F F F
16.754787 6.896894 3.363891   F F F
16.754787 15.996894 3.363891   F F F
16.754787 25.096893 3.363891   F F F
16.754787 34.196899 3.363891   F F F
23.434788 6.896894 3.363891   F F F
23.434788 15.996894 3.363891   F F F
23.434788 25.096893 3.363891   F F F
23.434788 34.196899 3.363891   F F F
30.114788 6.896894 3.363891   F F F
30.114788 15.996894 3.363891   F F F
30.114788 25.096893 3.363891   F F F
30.114788 34.196899 3.363891   F F F
3.414843 2.303841 3.331368   F F F
3.414843 11.403842 3.331368   F F F
3.414843 20.503841 3.331368   F F F
3.414843 29.603844 3.331368   F F F
10.094844 2.303841 3.331368   F F F
10.094844 11.403842 3.331368   F F F
10.094844 20.503841 3.331368   F F F
10.094844 29.603844 3.331368   F F F
16.774845 2.303841 3.331368   F F F
16.774845 11.403842 3.331368   F F F
16.774845 20.503841 3.331368   F F F
16.774845 29.603844 3.331368   F F F
23.454844 2.303841 3.331368   F F F
23.454844 11.403842 3.331368   F F F
23.454844 20.503841 3.331368   F F F
23.454844 29.603844 3.331368   F F F
30.134842 2.303841 3.331368   F F F
30.134842 11.403842 3.331368   F F F
30.134842 20.503841 3.331368   F F F
30.134842 29.603844 3.331368   F F F
0.044110 2.348536 3.343184   F F F
0.044110 11.448536 3.343184   F F F
0.044110 20.548538 3.343184   F F F
0.044110 29.648539 3.343184   F F F
6.724110 2.348536 3.343184   F F F
6.724110 11.448536 3.343184   F F F
6.724110 20.548538 3.343184   F F F
6.724110 29.648539 3.343184   F F F
13.404110 2.348536 3.343184   F F F
13.404110 11.448536 3.343184   F F F
13.404110 20.548538 3.343184   F F F
13.404110 29.648539 3.343184   F F F
20.084110 2.348536 3.343184   F F F
20.084110 11.448536 3.343184   F F F
20.084110 20.548538 3.343184   F F F
20.084110 29.648539 3.343184   F F F
26.764111 2.348536 3.343184   F F F
26.764111 11.448536 3.343184   F F F
26.764111 20.548538 3.343184   F F F
26.764111 29.648539 3.343184   F F F
1.761453 0.019308 3.311635   F F F
1.761453 9.119308 3.311635   F F F
1.761453 18.219311 3.311635   F F F
1.761453 27.319311 3.311635   F F F
8.441454 0.019308 3.311635   F F F
8.441454 9.119308 3.311635   F F F
8.441454 18.219311 3.311635   F F F
8.441454 27.319311 3.311635   F F F
15.121452 0.019308 3.311635   F F F
15.121452 9.119308 3.311635   F F F
15.121452 18.219311 3.311635   F F F
15.121452 27.319311 3.311635   F F F
21.801453 0.019308 3.311635   F F F
21.801453 9.119308 3.311635   F F F
21.801453 18.219311 3.311635   F F F
21.801453 27.319311 3.311635   F F F
28.481455 0.019308 3.311635   F F F
28.481455 9.119308 3.311635   F F F
28.481455 18.219311 3.311635   F F F
28.481455 27.319311 3.311635   F F F
5.087930 0.085745 3.343389   F F F
5.087930 9.185745 3.343389   F F F
5.087930 18.285746 3.343389   F F F
5.087930 27.385746 3.343389   F F F
11.767931 0.085745 3.343389   F F F
11.767931 9.185745 3.343389   F F F
11.767931 18.285746 3.343389   F F F
11.767931 27.385746 3.343389   F F F
18.447929 0.085745 3.343389   F F F
18.447929 9.185745 3.343389   F F F
18.447929 18.285746 3.343389   F F F
18.447929 27.385746 3.343389   F F F
25.127932 0.085745 3.343389   F F F
25.127932 9.185745 3.343389   F F F
25.127932 18.285746 3.343389   F F F
25.127932 27.385746 3.343389   F F F
31.807930 0.085745 3.343389   F F F
31.807930 9.185745 3.343389   F F F
31.807930 18.285746 3.343389   F F F
31.807930 27.385746 3.343389   F F F
1.442832 6.820650 5.882968   T T T
1.442395 15.940181 5.869444   T T T
1.443216 25.023762 5.897288   T T T
1.446340 34.110069 5.906653   T T T
8.122439 6.816128 5.903516   T T T
8.140932 15.853392 5.940769   T T T
8.097375 25.030674 5.953773   T T T
8.116123 34.107716 5.902346   T T T
14.799101 6.812416 5.907306   T T T
14.800591 15.811599 5.886288   T T T
14.850076 25.142649 5.927670   T T T
14.805348 34.114586 5.890378   T T T
21.495472 6.822350 5.887390   T T T
21.468447 15.806999 5.859790   T T T
21.540066 25.075241 5.954482   T T T
21.488913 34.128780 5.897958   T T T
28.172871 6.817431 5.900043   T T T
28.117167 15.910220 6.000366   T T T
28.149529 25.026806 5.909182   T T T
28.169750 34.117233 5.901604   T T T
3.119060 36.390491 5.892891   T T T
3.105534 9.103323 5.881915   T T T
3.108250 18.199738 5.883840   T T T
3.111446 27.309921 5.878914   T T T
9.784060 36.386047 5.890408   T T T
9.780777 9.089055 5.888160   T T T
9.841928 18.126852 5.810211   T T T
9.780449 27.308481 5.909926   T T T
16.481142 36.388657 5.887667   T T T
16.468891 9.088773 5.877602   T T T
16.546442 18.060734 5.810168   T T T
16.479288 27.378706 5.904516   T T T
23.160686 36.395691 5.885454   T T T
23.164770 9.090902 5.877401   T T T
23.173399 18.097120 5.854696   T T T
23.153231 27.338324 5.916364   T T T
29.838839 -0.000975 5.884754   T T T
29.825586 9.111331 5.882896   T T T
29.759550 18.201628 5.988226   T T T
29.833487 27.299006 5.892487   T T T
6.449648 4.543255 5.873747   T T T
6.427793 13.670845 5.944526   T T T
6.425700 22.748997 5.935093   T T T
6.446899 31.847086 5.880442   T T T
13.121601 4.533683 5.877831   T T T
13.086593 13.654112 5.911952   T T T
13.155788 22.847286 5.709817   T T T
13.121523 31.851414 5.890089   T T T
19.815220 4.552379 5.881483   T T T
19.780340 13.616890 5.904768   T T T
19.815729 22.805201 5.787988   T T T
19.819439 31.854267 5.889493   T T T
26.491014 4.554055 5.883456   T T T
26.453253 13.692228 5.964279   T T T
26.479622 22.769686 5.945835   T T T
26.489746 31.857603 5.880546   T T T
33.169724 4.558217 5.869642   T T T
33.171822 13.676905 5.869184   T T T
33.164967 22.740011 5.877432   T T T
33.166901 31.862125 5.881413   T T T
4.856733 6.727201 5.762382   T T T
4.911603 15.923899 5.798854   T T T
4.859218 24.963316 5.745935   T T T
4.847502 34.021938 5.750659   T T T
11.552144 6.756412 5.749259   T T T
11.506240 15.934170 5.919236   T T T
11.389792 24.978155 5.927069   T T T
11.525859 34.034275 5.742548   T T T
18.201397 6.742292 5.754755   T T T
18.193640 15.908655 5.990054   T T T
18.050390 25.005939 5.902350   T T T
18.223658 34.015667 5.750552   T T T
24.903130 6.742261 5.756985   T T T
24.833435 15.923566 5.998011   T T T
24.881222 24.990171 5.767241   T T T
24.893360 34.042656 5.744545   T T T
31.576263 6.772717 5.748195   T T T
31.533520 15.849862 5.737114   T T T
31.585869 24.969728 5.742177   T T T
31.565807 34.031746 5.749352   T T T
4.777725 2.270555 5.876435   T T T
4.780921 11.382922 5.899512   T T T
4.777189 20.465034 5.940346   T T T
4.776584 29.578367 5.876428   T T T
11.451056 2.260758 5.893003   T T T
11.446077 11.357306 5.891543   T T T
11.519675 20.478947 5.681642   T T T
11.452604 29.580673 5.892413   T T T
18.145580 2.269316 5.891998   T T T
18.142437 11.352935 5.897689   T T T
18.155951 20.444326 5.750653   T T T
18.159689 29.597843 5.900731   T T T
24.826328 2.267615 5.886699   T T T
24.830488 11.388144 5.903053   T T T
24.825871 20.446264 5.921967   T T T
24.828577 29.600143 5.903518   T T T
31.506575 2.271743 5.885334   T T T
31.499163 11.391403 5.898428   T T T
31.471279 20.457855 5.904647   T T T
31.499832 29.573782 5.894590   T T T
6.507315 8.998160 5.735643   T T T
6.491568 18.152914 5.871791   T T T
6.529069 27.214054 5.752291   T T T
6.513299 36.303379 5.737796   T T T
13.197345 8.999545 5.737321   T T T
13.138247 18.120577 5.881360   T T T
13.182307 27.257971 5.739594   T T T
13.203471 36.314411 5.740310   T T T
19.880310 8.983959 5.748755   T T T
19.750885 18.129538 5.893049   T T T
19.889370 27.229321 5.745000   T T T
19.876854 36.311821 5.742817   T T T
26.569908 8.992539 5.736378   T T T
26.461805 18.111462 5.895562   T T T
26.560452 27.226273 5.730809   T T T
26.577738 36.306896 5.744213   T T T
33.232533 8.997839 5.751194   T T T
33.198776 18.091267 5.743241   T T T
33.236504 27.202248 5.752291   T T T
33.252102 36.300411 5.743700   T T T
1.497829 2.187566 5.727727   T T T
1.515625 11.302962 5.728907   T T T
1.507795 20.369490 5.732718   T T T
1.504801 29.523718 5.710858   T T T
8.180187 2.172982 5.738991   T T T
8.182559 11.323418 5.720949   T T T
8.133613 20.455778 5.842907   T T T
8.185152 29.520580 5.729845   T T T
14.865203 2.190202 5.731183   T T T
14.855875 11.280084 5.732174   T T T
14.766032 20.465069 5.809738   T T T
14.858732 29.528151 5.729983   T T T
21.547701 2.184066 5.728209   T T T
21.557291 11.276343 5.730152   T T T
21.400219 20.480658 5.805275   T T T
21.563959 29.514616 5.720842   T T T
28.222145 2.207878 5.724243   T T T
28.233053 11.344514 5.711078   T T T
28.196041 20.436686 5.729804   T T T
28.237835 29.522291 5.729206   T T T
3.178674 4.462482 5.720495   T T T
3.185695 13.573857 5.715805   T T T
3.167606 22.647917 5.725979   T T T
3.179331 31.771404 5.723387   T T T
9.833810 4.441793 5.731913   T T T
9.845619 13.566938 5.733396   T T T
9.745257 22.708935 5.846904   T T T
9.857952 31.756342 5.733832   T T T
16.538448 4.438497 5.721423   T T T
16.520847 13.553276 5.740605   T T T
16.352331 22.770731 5.822488   T T T
16.540453 31.749508 5.739866   T T T
23.218527 4.455416 5.721337   T T T
23.211561 13.544713 5.751039   T T T
23.119829 22.760172 5.850618   T T T
23.226749 31.779541 5.721223   T T T
29.898191 4.464104 5.716147   T T T
29.866592 13.567248 5.747068   T T T
29.897797 22.679850 5.720608   T T T
29.895720 31.744909 5.727021   T T T
1.715566 7.327129 2.799685   F F F
1.715566 16.427130 2.799685   F F F
1.715566 25.527130 2.799685   F F F
1.715566 34.627132 2.799685   F F F
8.395567 7.327129 2.799685   F F F
8.395567 16.427130 2.799685   F F F
8.395567 25.527130 2.799685   F F F
8.395567 34.627132 2.799685   F F F
15.075565 7.327129 2.799685   F F F
15.075565 16.427130 2.799685   F F F
15.075565 25.527130 2.799685   F F F
15.075565 34.627132 2.799685   F F F
21.755568 7.327129 2.799685   F F F
21.755568 16.427130 2.799685   F F F
21.755568 25.527130 2.799685   F F F
21.755568 34.627132 2.799685   F F F
28.435568 7.327129 2.799685   F F F
28.435568 16.427130 2.799685   F F F
28.435568 25.527130 2.799685   F F F
28.435568 34.627132 2.799685   F F F
0.085423 5.147228 2.788191   F F F
0.085423 14.247230 2.788191   F F F
0.085423 23.347229 2.788191   F F F
0.085423 32.447227 2.788191   F F F
6.765423 5.147228 2.788191   F F F
6.765423 14.247230 2.788191   F F F
6.765423 23.347229 2.788191   F F F
6.765423 32.447227 2.788191   F F F
13.445424 5.147228 2.788191   F F F
13.445424 14.247230 2.788191   F F F
13.445424 23.347229 2.788191   F F F
13.445424 32.447227 2.788191   F F F
20.125423 5.147228 2.788191   F F F
20.125423 14.247230 2.788191   F F F
20.125423 23.347229 2.788191   F F F
20.125423 32.447227 2.788191   F F F
26.805422 5.147228 2.788191   F F F
26.805422 14.247230 2.788191   F F F
26.805422 23.347229 2.788191   F F F
26.805422 32.447227 2.788191   F F F
5.046933 2.770356 2.785316   F F F
5.046933 11.870357 2.785316   F F F
5.046933 20.970358 2.785316   F F F
5.046933 30.070358 2.785316   F F F
11.726933 2.770356 2.785316   F F F
11.726933 11.870357 2.785316   F F F
11.726933 20.970358 2.785316   F F F
11.726933 30.070358 2.785316   F F F
18.406935 2.770356 2.785316   F F F
18.406935 11.870357 2.785316   F F F
18.406935 20.970358 2.785316   F F F
18.406935 30.070358 2.785316   F F F
25.086935 2.770356 2.785316   F F F
25.086935 11.870357 2.785316   F F F
25.086935 20.970358 2.785316   F F F
25.086935 30.070358 2.785316   F F F
31.766933 2.770356 2.785316   F F F
31.766933 11.870357 2.785316   F F F
31.766933 20.970358 2.785316   F F F
31.766933 30.070358 2.785316   F F F
3.435050 0.597231 2.814832   F F F
3.435050 9.697231 2.814832   F F F
3.435050 18.797234 2.814832   F F F
3.435050 27.897234 2.814832   F F F
10.115050 0.597231 2.814832   F F F
10.115050 9.697231 2.814832   F F F
10.115050 18.797234 2.814832   F F F
10.115050 27.897234 2.814832   F F F
16.795052 0.597231 2.814832   F F F
16.795052 9.697231 2.814832   F F F
16.795052 18.797234 2.814832   F F F
16.795052 27.897234 2.814832   F F F
23.475052 0.597231 2.814832   F F F
23.475052 9.697231 2.814832   F F F
23.475052 18.797234 2.814832   F F F
23.475052 27.897234 2.814832   F F F
30.155050 0.597231 2.814832   F F F
30.155050 9.697231 2.814832   F F F
30.155050 18.797234 2.814832   F F F
30.155050 27.897234 2.814832   F F F
5.092394 6.369123 3.906630   F F F
5.092394 15.469125 3.906630   F F F
5.092394 24.569124 3.906630   F F F
5.092394 33.669128 3.906630   F F F
11.772394 6.369123 3.906630   F F F
11.772394 15.469125 3.906630   F F F
11.772394 24.569124 3.906630   F F F
11.772394 33.669128 3.906630   F F F
18.452394 6.369123 3.906630   F F F
18.452394 15.469125 3.906630   F F F
18.452394 24.569124 3.906630   F F F
18.452394 33.669128 3.906630   F F F
25.132395 6.369123 3.906630   F F F
25.132395 15.469125 3.906630   F F F
25.132395 24.569124 3.906630   F F F
25.132395 33.669128 3.906630   F F F
31.812393 6.369123 3.906630   F F F
31.812393 15.469125 3.906630   F F F
31.812393 24.569124 3.906630   F F F
31.812393 33.669128 3.906630   F F F
3.402734 4.048975 3.889201   F F F
3.402734 13.148976 3.889201   F F F
3.402734 22.248978 3.889201   F F F
3.402734 31.348978 3.889201   F F F
10.082734 4.048975 3.889201   F F F
10.082734 13.148976 3.889201   F F F
10.082734 22.248978 3.889201   F F F
10.082734 31.348978 3.889201   F F F
16.762735 4.048975 3.889201   F F F
16.762735 13.148976 3.889201   F F F
16.762735 22.248978 3.889201   F F F
16.762735 31.348978 3.889201   F F F
23.442734 4.048975 3.889201   F F F
23.442734 13.148976 3.889201   F F F
23.442734 22.248978 3.889201   F F F
23.442734 31.348978 3.889201   F F F
30.122734 4.048975 3.889201   F F F
30.122734 13.148976 3.889201   F F F
30.122734 22.248978 3.889201   F F F
30.122734 31.348978 3.889201   F F F
0.069662 8.591599 3.908113   F F F
0.069662 17.691599 3.908113   F F F
0.069662 26.791601 3.908113   F F F
0.069662 35.891605 3.908113   F F F
6.749661 8.591599 3.908113   F F F
6.749661 17.691599 3.908113   F F F
6.749661 26.791601 3.908113   F F F
6.749661 35.891605 3.908113   F F F
13.429663 8.591599 3.908113   F F F
13.429663 17.691599 3.908113   F F F
13.429663 26.791601 3.908113   F F F
13.429663 35.891605 3.908113   F F F
20.109661 8.591599 3.908113   F F F
20.109661 17.691599 3.908113   F F F
20.109661 26.791601 3.908113   F F F
20.109661 35.891605 3.908113   F F F
26.789661 8.591599 3.908113   F F F
26.789661 17.691599 3.908113   F F F
26.789661 26.791601 3.908113   F F F
26.789661 35.891605 3.908113   F F F
1.747411 1.855024 3.884461   F F F
1.747411 10.955026 3.884461   F F F
1.747411 20.055025 3.884461   F F F
1.747411 29.155025 3.884461   F F F
8.427410 1.855024 3.884461   F F F
8.427410 10.955026 3.884461   F F F
8.427410 20.055025 3.884461   F F F
8.427410 29.155025 3.884461   F F F
15.107410 1.855024 3.884461   F F F
15.107410 10.955026 3.884461   F F F
15.107410 20.055025 3.884461   F F F
15.107410 29.155025 3.884461   F F F
21.787411 1.855024 3.884461   F F F
21.787411 10.955026 3.884461   F F F
21.787411 20.055025 3.884461   F F F
21.787411 29.155025 3.884461   F F F
28.467411 1.855024 3.884461   F F F
28.467411 10.955026 3.884461   F F F
28.467411 20.055025 3.884461   F F F
28.467411 29.155025 3.884461   F F F
4.841577 0.461381 5.263054   T T T
4.838026 9.557690 5.265821   T T T
4.833976 18.669514 5.266862   T T T
4.852827 27.757965 5.275499   T T T
11.518004 0.455181 5.266043   T T T
11.520963 9.554816 5.268366   T T T
11.536621 18.676249 5.161736   T T T
11.502067 27.775610 5.253944   T T T
18.204147 0.470346 5.259400   T T T
18.214884 9.551050 5.270836   T T T
18.195950 18.674967 5.137095   T T T
18.218946 27.788324 5.270516   T T T
24.898874 0.460420 5.271683   T T T
24.901236 9.580218 5.266535   T T T
24.861691 18.696058 5.196470   T T T
24.882050 27.780527 5.279853   T T T
31.574127 0.462387 5.272449   T T T
31.565998 9.575517 5.255590   T T T
31.508591 18.640965 5.283833   T T T
31.567009 27.762264 5.253684   T T T
3.180120 7.269468 5.263140   T T T
3.200985 16.376955 5.282712   T T T
3.172642 25.486307 5.265915   T T T
3.173528 34.577099 5.274653   T T T
9.859896 7.268808 5.269653   T T T
9.831043 16.347063 5.231237   T T T
9.787265 25.498644 5.250761   T T T
9.841278 34.575539 5.272077   T T T
16.520599 7.273096 5.244118   T T T
16.541224 16.265903 5.242260   T T T
16.497223 25.595465 5.197045   T T T
16.541979 34.566730 5.276229   T T T
23.227270 7.270574 5.262956   T T T
23.192255 16.318426 5.241627   T T T
23.222414 25.546478 5.227937   T T T
23.211956 34.580067 5.267025   T T T
29.895651 7.284370 5.256398   T T T
29.824533 16.419073 5.306427   T T T
29.889023 25.466969 5.266560   T T T
29.890425 34.583523 5.268413   T T T
1.502192 5.018379 5.251904   T T T
1.503651 14.129746 5.252569   T T T
1.497646 23.218397 5.260768   T T T
1.497743 32.313751 5.249952   T T T
8.173300 5.010358 5.245285   T T T
8.147026 14.103205 5.274659   T T T
8.122550 23.252594 5.242654   T T T
8.181198 32.298283 5.263822   T T T
14.860059 5.007142 5.262465   T T T
14.814997 14.058290 5.251047   T T T
14.820689 23.411362 5.109609   T T T
14.859166 32.299881 5.257012   T T T
21.540485 5.010150 5.254375   T T T
21.514532 14.047503 5.248386   T T T
21.514990 23.339445 5.176208   T T T
21.538433 32.317001 5.252152   T T T
28.217094 5.010919 5.249490   T T T
28.169960 14.144900 5.281007   T T T
28.206850 23.215973 5.272059   T T T
28.222246 32.317722 5.249734   T T T
6.508677 2.724837 5.254153   T T T
6.496596 11.859245 5.245931   T T T
6.480424 20.950670 5.242920   T T T
6.500622 30.037336 5.243755   T T T
13.175600 2.718688 5.253686   T T T
13.171862 11.837255 5.244774   T T T
13.199955 21.043449 5.100788   T T T
13.169794 30.039263 5.238888   T T T
19.866949 2.741402 5.260256   T T T
19.867899 11.811070 5.257389   T T T
19.817036 21.038620 5.114576   T T T
19.874664 30.040445 5.249149   T T T
26.540993 2.751220 5.250554   T T T
26.541815 11.872262 5.241730   T T T
26.505938 20.997610 5.245801   T T T
26.553280 30.036478 5.250519   T T T
33.222107 2.743789 5.250969   T T T
33.229836 11.836975 5.261472   T T T
33.214737 20.909151 5.257832   T T T
33.210896 30.039480 5.246364   T T T
1.402522 8.608061 6.445130   T T T
1.395857 17.728752 6.416317   T T T
1.407115 26.819988 6.452222   T T T
1.414442 35.913933 6.459411   T T T
8.073879 8.611441 6.454278   T T T
8.111038 17.621576 6.621560   T T T
8.081742 26.826517 6.500480   T T T
8.072256 35.908520 6.455759   T T T
14.760603 8.622198 6.451167   T T T
14.811036 17.597855 6.421347   T T T
14.756536 26.921246 6.492548   T T T
14.770748 35.917027 6.438397   T T T
21.460634 8.614999 6.445035   T T T
21.379429 17.556957 6.478819   T T T
21.449818 26.836489 6.520005   T T T
21.445204 35.931190 6.447233   T T T
28.126245 8.610949 6.463727   T T T
28.001688 17.651804 6.732148   T T T
28.120621 26.821634 6.446309   T T T
28.138521 35.917355 6.463581   T T T
6.418159 6.314674 6.477292   T T T
6.447783 15.503349 6.666575   T T T
6.396132 24.547251 6.505353   T T T
6.410642 33.626461 6.473083   T T T
13.102757 6.322800 6.470077   T T T
13.089780 15.458102 6.614161   T T T
13.077594 24.629419 6.473041   T T T
13.091770 33.649216 6.457150   T T T
19.772564 6.347893 6.443702   T T T
19.802168 15.386994 6.584802   T T T
19.710354 24.577477 6.491301   T T T
19.789270 33.647892 6.476600   T T T
26.460985 6.334070 6.473807   T T T
26.428810 15.516880 6.776555   T T T
26.424948 24.541773 6.491538   T T T
26.457916 33.658592 6.465631   T T T
33.134190 6.348218 6.451020   T T T
33.119110 15.473416 6.427977   T T T
33.140152 24.537527 6.461910   T T T
33.130802 33.654865 6.472702   T T T
3.063140 1.793115 6.439781   T T T
3.072765 10.891600 6.460593   T T T
3.060847 19.968288 6.486570   T T T
3.065350 29.102707 6.430528   T T T
9.740411 1.778862 6.459255   T T T
9.728393 10.891821 6.438717   T T T
9.808808 19.919912 6.334008   T T T
9.740776 29.101347 6.448289   T T T
16.428747 1.800379 6.450215   T T T
16.423868 10.882445 6.435032   T T T
16.415627 19.875086 6.278045   T T T
16.435680 29.161282 6.444097   T T T
23.113897 1.798607 6.444306   T T T
23.116859 10.883109 6.447239   T T T
22.995636 19.871944 6.400297   T T T
23.115412 29.127338 6.473468   T T T
29.787487 1.803024 6.433230   T T T
29.779852 10.911090 6.441515   T T T
29.738546 19.990845 6.469729   T T T
29.792410 29.099615 6.439745   T T T
4.738708 4.062808 6.435914   T T T
4.730588 13.182494 6.475899   T T T
4.716804 22.261482 6.475574   T T T
4.739484 31.370192 6.442727   T T T
11.407079 4.063673 6.423088   T T T
11.398220 13.150815 6.451128   T T T
11.450187 22.262838 6.289929   T T T
11.419875 31.364754 6.453932   T T T
18.106302 4.073421 6.444066   T T T
18.077524 13.147001 6.440924   T T T
18.026676 22.254599 6.271492   T T T
18.112949 31.387892 6.448418   T T T
24.779980 4.071651 6.440892   T T T
24.769117 13.170700 6.486193   T T T
24.693485 22.220339 6.622597   T T T
24.787270 31.397266 6.453416   T T T
31.458595 4.074068 6.430177   T T T
31.451698 13.196658 6.420145   T T T
31.454865 22.260897 6.434421   T T T
31.457251 31.378786 6.449389   T T T
2.024953 4.161706 1.893229   F F F
2.024953 13.261708 1.893229   F F F
2.024953 22.361708 1.893229   F F F
2.024953 31.461708 1.893229   F F F
8.704952 4.161706 1.893229   F F F
8.704952 13.261708 1.893229   F F F
8.704952 22.361708 1.893229   F F F
8.704952 31.461708 1.893229   F F F
15.384954 4.161706 1.893229   F F F
15.384954 13.261708 1.893229   F F F
15.384954 22.361708 1.893229   F F F
15.384954 31.461708 1.893229   F F F
22.064951 4.161706 1.893229   F F F
22.064951 13.261708 1.893229   F F F
22.064951 22.361708 1.893229   F F F
22.064951 31.461708 1.893229   F F F
28.744953 4.161706 1.893229   F F F
28.744953 13.261708 1.893229   F F F
28.744953 22.361708 1.893229   F F F
28.744953 31.461708 1.893229   F F F
3.690523 6.482593 1.920798   F F F
3.690523 15.582594 1.920798   F F F
3.690523 24.682596 1.920798   F F F
3.690523 33.782593 1.920798   F F F
10.370522 6.482593 1.920798   F F F
10.370522 15.582594 1.920798   F F F
10.370522 24.682596 1.920798   F F F
10.370522 33.782593 1.920798   F F F
17.050522 6.482593 1.920798   F F F
17.050522 15.582594 1.920798   F F F
17.050522 24.682596 1.920798   F F F
17.050522 33.782593 1.920798   F F F
23.730524 6.482593 1.920798   F F F
23.730524 15.582594 1.920798   F F F
23.730524 24.682596 1.920798   F F F
23.730524 33.782593 1.920798   F F F
30.410524 6.482593 1.920798   F F F
30.410524 15.582594 1.920798   F F F
30.410524 24.682596 1.920798   F F F
30.410524 33.782593 1.920798   F F F
0.346072 1.921555 1.910201   F F F
0.346072 11.021556 1.910201   F F F
0.346072 20.121557 1.910201   F F F
0.346072 29.221558 1.910201   F F F
7.026073 1.921555 1.910201   F F F
7.026073 11.021556 1.910201   F F F
7.026073 20.121557 1.910201   F F F
7.026073 29.221558 1.910201   F F F
13.706072 1.921555 1.910201   F F F
13.706072 11.021556 1.910201   F F F
13.706072 20.121557 1.910201   F F F
13.706072 29.221558 1.910201   F F F
20.386072 1.921555 1.910201   F F F
20.386072 11.021556 1.910201   F F F
20.386072 20.121557 1.910201   F F F
20.386072 29.221558 1.910201   F F F
27.066071 1.921555 1.910201   F F F
27.066071 11.021556 1.910201   F F F
27.066071 20.121557 1.910201   F F F
27.066071 29.221558 1.910201   F F F
5.375916 8.722162 1.905694   F F F
5.375916 17.822163 1.905694   F F F
5.375916 26.922163 1.905694   F F F
5.375916 36.022163 1.905694   F F F
12.055917 8.722162 1.905694   F F F
12.055917 17.822163 1.905694   F F F
12.055917 26.922163 1.905694   F F F
12.055917 36.022163 1.905694   F F F
18.735918 8.722162 1.905694   F F F
18.735918 17.822163 1.905694   F F F
18.735918 26.922163 1.905694   F F F
18.735918 36.022163 1.905694   F F F
25.415915 8.722162 1.905694   F F F
25.415915 17.822163 1.905694   F F F
25.415915 26.922163 1.905694   F F F
25.415915 36.022163 1.905694   F F F
32.095921 8.722162 1.905694   F F F
32.095921 17.822163 1.905694   F F F
32.095921 26.922163 1.905694   F F F
32.095921 36.022163 1.905694   F F F
23.912046 10.828342 29.663025   T T T
21.459595 9.401086 29.543381   T T T
19.007145 7.973823 29.423731   T T T
16.554697 6.546570 29.304100   T T T
14.102247 5.119306 29.184460   T T T
11.649797 3.692050 29.064825   T T T
22.479782 13.272223 29.867882   T T T
21.969688 11.218039 31.120701   T T T
20.027328 11.844959 29.748249   T T T
19.517239 9.790774 31.001055   T T T
17.574883 10.417703 29.628597   T T T
17.064789 8.363516 30.881418   T T T
15.122429 8.990435 29.508961   T T T
14.612336 6.936254 30.761774   T T T
12.669982 7.563172 29.389328   T T T
12.159886 5.508998 30.642128   T T T
10.217530 6.135923 29.269686   T T T
21.047518 15.716097 30.072744   T T T
20.537422 13.661917 31.325550   T T T
18.595068 14.288841 29.953100   T T T
18.084974 12.234657 31.205914   T T T
16.142616 12.861574 29.833462   T T T
15.632522 10.807400 31.086281   T T T
13.690164 11.434320 29.713821   T T T
13.180075 9.380137 30.966635   T T T
11.237714 10.007058 29.594173   T T T
10.727625 7.952874 30.846996   T T T
8.785264 8.579802 29.474533   T T T
19.615252 18.159981 30.277592   T T T
19.105158 16.105801 31.530407   T T T
17.162800 16.732723 30.157957   T T T
16.652710 14.678531 31.410769   T T T
14.710352 15.305460 30.038313   T T T
14.200259 13.251272 31.291126   T T T
12.257902 13.878200 29.918674   T T T
11.747808 11.824018 31.171494   T T T
9.805447 12.450940 29.799036   T T T
9.295357 10.396757 31.051857   T T T
7.352999 11.023675 29.679399   T T T
18.182985 20.603857 30.482456   T T T
17.672895 18.549675 31.735268   T T T
15.730535 19.176598 30.362822   T T T
15.220444 17.122410 31.615616   T T T
13.278084 17.749340 30.243172   T T T
12.767994 15.695158 31.495981   T T T
10.825638 16.322079 30.123531   T T T
10.315540 14.267902 31.376350   T T T
8.373184 14.894819 30.003895   T T T
7.863092 12.840633 31.256708   T T T
5.920732 13.467562 29.884251   T T T
16.750719 23.047743 30.687311   T T T
16.240629 20.993551 31.940119   T T T
14.298273 21.620480 30.567678   T T T
13.788177 19.566284 31.820490   T T T
11.845821 20.193222 30.448027   T T T
11.335730 18.139036 31.700855   T T T
9.393370 18.765961 30.328394   T T T
8.883276 16.711769 31.581205   T T T
6.940920 17.338703 30.208748   T T T
6.430829 15.284513 31.461567   T T T
4.488467 15.911434 30.089117   T T T
25.344313 8.621696 26.628040   T T T
22.891865 7.194437 26.508400   T T T
20.439409 5.767182 26.388758   T T T
17.986961 4.339917 26.269121   T T T
15.534508 2.912669 26.149477   T T T
13.082060 1.485401 26.029835   T T T
26.364498 12.492842 26.952538   T T T
25.854404 10.438652 28.205349   T T T
23.912046 11.065580 26.832897   T T T
23.401951 9.011391 28.085709   T T T
21.459595 9.638315 26.713261   T T T
20.949505 7.584132 27.966066   T T T
19.007145 8.211060 26.593615   T T T