poscar file by
1.000000
13.27344096 0.000000 0.000000
-6.6367184 11.49513664 0.000000
0.000000 0.000000 17.785248
W S 
16 32 
Selective dynamics
Cartesian
-0.000001 1.842170 8.550600   T T T
3.190730 1.842170 8.550600   T T T
6.381461 1.842170 8.550600   T T T
9.572192 1.842170 8.550600   T T T
-1.595366 4.605424 8.550600   T T T
1.595365 4.605424 8.550600   T T T
4.786096 4.605424 8.550600   T T T
7.976827 4.605424 8.550600   T T T
-3.190732 7.368678 8.550600   T T T
-0.000000 7.368678 8.550600   T T T
3.190731 7.368678 8.550600   T T T
6.381462 7.368678 8.550600   T T T
-4.786097 10.131931 8.550600   T T T
-1.595366 10.131931 8.550600   T T T
1.595366 10.131931 8.550600   T T T
4.786097 10.131931 8.550600   T T T
1.595367 0.921084 6.977563   T T T
1.595367 0.921084 10.123636   T T T
4.786098 0.921084 6.977563   T T T
4.786098 0.921084 10.123636   T T T
7.976830 0.921084 6.977563   T T T
7.976830 0.921084 10.123636   T T T
11.167561 0.921084 6.977563   T T T
11.167561 0.921084 10.123636   T T T
0.000002 3.684338 6.977563   T T T
0.000002 3.684338 10.123636   T T T
3.190733 3.684338 6.977563   T T T
3.190733 3.684338 10.123636   T T T
6.381464 3.684338 6.977563   T T T
6.381464 3.684338 10.123636   T T T
9.572195 3.684338 6.977563   T T T
9.572195 3.684338 10.123636   T T T
-1.595363 6.447592 6.977563   T T T
-1.595363 6.447592 10.123636   T T T
1.595368 6.447592 6.977563   T T T
1.595368 6.447592 10.123636   T T T
4.786099 6.447592 6.977563   T T T
4.786099 6.447592 10.123636   T T T
7.976830 6.447592 6.977563   T T T
7.976830 6.447592 10.123636   T T T
-3.190728 9.210845 6.977563   T T T
-3.190728 9.210845 10.123636   T T T
0.000003 9.210845 6.977563   T T T
0.000003 9.210845 10.123636   T T T
3.190734 9.210845 6.977563   T T T
3.190734 9.210845 10.123636   T T T
6.381465 9.210845 6.977563   T T T
6.381465 9.210845 10.123636   T T T
